Version identifier: 22.1.0.0 | 2022-03-09 | 1a383f8ce
CPXPARAM_Read_DataCheck                          1
CPXPARAM_Threads                                 1
CPXPARAM_TimeLimit                               3600
Tried aggregator 2 times.
MIP Presolve eliminated 4762 rows and 1468 columns.
MIP Presolve modified 30315 coefficients.
Aggregator did 528 substitutions.
Reduced MIP has 7576 rows, 1054 columns, and 53204 nonzeros.
Reduced MIP has 874 binaries, 0 generals, 0 SOSs, and 0 indicators.
Presolve time = 0.08 sec. (84.66 ticks)
Probing fixed 22 vars, tightened 0 bounds.
Probing time = 0.05 sec. (64.95 ticks)
Tried aggregator 1 time.
Detecting symmetries...
MIP Presolve eliminated 92 rows and 22 columns.
Reduced MIP has 7484 rows, 1032 columns, and 52504 nonzeros.
Reduced MIP has 852 binaries, 0 generals, 0 SOSs, and 0 indicators.
Presolve time = 0.03 sec. (23.24 ticks)
Probing time = 0.00 sec. (5.65 ticks)
Clique table members: 13139.
MIP emphasis: balance optimality and feasibility.
MIP search method: dynamic search.
Parallel mode: none, using 1 thread.
Root relaxation solution time = 0.02 sec. (31.29 ticks)

        Nodes                                         Cuts/
   Node  Left     Objective  IInf  Best Integer    Best Bound    ItCnt     Gap

      0     0       27.2400   135                     27.2400      328         
      0     0       27.2400    62                   Cuts: 109      472         
      0     0       27.2400    75                   Cuts: 599      670         
      0     0       27.2400    75                   Cuts: 397      854         
*     0+    0                           40.6000       27.2400            32.91%
*     0+    0                           37.4000       27.2400            27.17%
      0     0  -1.00000e+75     0       37.4000       27.2400      854   27.17%
Detecting symmetries...
      0     2       27.2400    75       37.4000       27.2400      854   27.17%
Elapsed time = 1.19 sec. (1651.72 ticks, tree = 0.01 MB, solutions = 2)
     20    20       27.2900    51       37.4000       27.2400     1766   27.17%
     50    40       27.2400    34       37.4000       27.2400     2839   27.17%
     80    68       27.2400    32       37.4000       27.2400     3404   27.17%
     90    78       27.2400    32       37.4000       27.2400     3663   27.17%
    118   106       27.2400    33       37.4000       27.2400     4117   27.17%
    160   148       27.2400    31       37.4000       27.2400     4555   27.17%
    204   184       27.2402    29       37.4000       27.2400     5203   27.17%
    252   218       27.2526    57       37.4000       27.2400     6301   27.17%
    268   218       27.2800    23       37.4000       27.2400     7229   27.17%
    344   264    infeasible             37.4000       27.2400    10167   27.17%
Elapsed time = 3.28 sec. (5478.12 ticks, tree = 5.20 MB, solutions = 2)
    495   392       27.2800    32       37.4000       27.2400    11977   27.17%

Performing restart 1

Repeating presolve.
Tried aggregator 1 time.
Reduced MIP has 7484 rows, 1032 columns, and 52504 nonzeros.
Reduced MIP has 852 binaries, 0 generals, 0 SOSs, and 0 indicators.
Presolve time = 0.02 sec. (18.02 ticks)
Tried aggregator 1 time.
Reduced MIP has 7484 rows, 1032 columns, and 52504 nonzeros.
Reduced MIP has 852 binaries, 0 generals, 0 SOSs, and 0 indicators.
Presolve time = 0.03 sec. (23.46 ticks)
Represolve time = 0.11 sec. (120.37 ticks)
    500     0       27.2400    95       37.4000    Cuts: 1038    13586   27.17%
    500     0       27.2400    83       37.4000     Cuts: 802    13883   27.17%
    500     0       27.2400    71       37.4000     Cuts: 453    14044   27.17%
    500     0       27.2402    94       37.4000     Cuts: 515    14259   27.17%
    500     0       27.2800    81       37.4000     Cuts: 395    14495   27.06%
    500     0       27.2800    79       37.4000     Cuts: 507    14660   27.06%
    500     0       27.2800    53       37.4000      Cuts: 91    14813   27.06%
    500     0       27.2800    76       37.4000     Cuts: 532    15061   27.06%
    500     0       27.2800    51       37.4000     Cuts: 234    15222   27.06%
    500     0       27.2800    44       37.4000     Cuts: 427    15337   27.06%
    500     0       27.2800    50       37.4000     Cuts: 116    15508   27.06%
*   500+    0                           31.2700       27.2800            12.76%
    500     0  -1.00000e+75     0       31.2700       27.2800    15508   12.76%
    500     2       27.2800    33       31.2700       27.2800    15508   12.76%
    507     7       27.3300    59       31.2700       27.2800    16004   12.76%
    522    20       27.3900    49       31.2700       27.2800    16835   12.76%
    543    34       28.7700    58       31.2700       27.2800    17813   12.76%
    560    41       28.8625    37       31.2700       27.2800    19522   12.76%
    585    47       27.2800    26       31.2700       27.2800    22417   12.76%
    600    61       27.2800    40       31.2700       27.2800    23306   12.76%
    623    82       27.5200    46       31.2700       27.2800    24771   12.76%
    634    93       27.4383    30       31.2700       27.2800    25899   12.76%
Elapsed time = 14.84 sec. (23954.51 ticks, tree = 0.31 MB, solutions = 3)
    660   108       30.2100    20       31.2700       27.2800    28615   12.76%
    691   133       27.4300    51       31.2700       27.2800    30706   12.76%
    696   137       27.6700    20       31.2700       27.2800    32167   12.76%
    717   151       29.1400    10       31.2700       27.2800    34965   12.76%
*   725   143      integral     0       29.1400       27.2800    35197    6.38%
    740   153       27.4800    47       29.1400       27.2800    36528    6.38%
    762   167       28.7000    22       29.1400       27.2800    39684    6.38%
    794   188       27.3425    40       29.1400       27.2800    42527    6.38%
    816   196       27.2800    23       29.1400       27.2800    45961    6.38%
    825   205       27.2800    32       29.1400       27.2800    46136    6.38%
    859   232       27.3900    28       29.1400       27.2800    48726    6.38%
Elapsed time = 24.21 sec. (38377.64 ticks, tree = 0.69 MB, solutions = 4)
*   883   219      integral     0       27.7600       27.2800    52333    1.73%
    884   219       27.2800    31       27.7600       27.2800    52383    1.73%
    945   257       27.3300    35       27.7600       27.2800    55201    1.73%
    968   273       27.2800    41       27.7600       27.2800    57644    1.73%
   1001   292       27.2800    19       27.7600       27.2800    60080    1.73%
   1030   310       27.3200    24       27.7600       27.2800    62352    1.73%
   1068   337       27.2800    26       27.7600       27.2800    64782    1.73%
   1101   366       27.2800    20       27.7600       27.2800    67150    1.73%
   1150   393       27.2800    34       27.7600       27.2800    69419    1.73%
   1195   431       27.4300    20       27.7600       27.2800    71930    1.73%
   1200   435       27.4300    19       27.7600       27.2800    72484    1.73%
Elapsed time = 33.01 sec. (51903.16 ticks, tree = 0.74 MB, solutions = 5)
   1259   476    infeasible             27.7600       27.2800    75455    1.73%
   1292   487       27.5644    13       27.7600       27.2800    77815    1.73%
   1334   508       27.2800     8       27.7600       27.2800    80023    1.73%
   1354   511       27.2800     8       27.7600       27.2800    83236    1.73%
   1382   522       27.3300    20       27.7600       27.2800    84859    1.73%
   1423   544    infeasible             27.7600       27.2800    88051    1.73%
   1441   547       27.3300    15       27.7600       27.2800    91218    1.73%
*  1460+  532                           27.6700       27.2800             1.41%
   1462   533       27.3900    14       27.6700       27.2800    93406    1.41%
   1495   548       27.3419    19       27.6700       27.2800    95988    1.41%
*  1500+  396                           27.3900       27.2800             0.40%
*  1540+    0                           27.2800       27.2800             0.00%

GUB cover cuts applied:  8
Clique cuts applied:  220
Cover cuts applied:  5
Flow cuts applied:  4
Mixed integer rounding cuts applied:  12
Gomory fractional cuts applied:  2

Root node processing (before b&c):
  Real time             =    1.19 sec. (1651.85 ticks)
Sequential b&c:
  Real time             =   39.28 sec. (59930.88 ticks)
                          ------------
Total (root+branch&cut) =   40.47 sec. (61582.73 ticks)
